c SAT problem
p wcnf 214 539
1 -60 75 0
1 75 76 0
1 75 3120 0
1 -90 105 0
1 90 3150 0
1 90 3120 0
1 -90 3090 0
1 -105 -3060 0
1 3120 135 0
1 3120 150 0
1 3120 120 0
1 -3135 -3136 0
1 -3135 -135 0
1 -3150 136 0
1 3165 -105 0
1 3165 181 0
1 -3165 -90 0
1 -3165 -60 0
1 -120 3060 0
1 -120 -121 0
1 150 3120 0
1 -165 -3045 0
1 -165 -3090 0
1 -165 -3135 0
1 3060 135 0
1 -3060 -180 0
1 -3060 -150 0
1 -3075 120 0
1 3075 -255 0
1 3090 3105 0
1 -3090 150 0
1 3105 105 0
1 -180 -3045 0
1 -180 -3000 0
1 195 3075 0
1 195 196 0
1 -210 -3000 0
1 -225 -3030 0
1 -3000 195 0
1 -3000 -300 0
1 -3015 -195 0
1 3015 300 0
1 -3045 -150 0
1 3045 -3030 0
1 61 76 0
1 91 -3300 0
1 -91 -106 0
1 -91 -3315 0
1 -3300 -166 0
1 3300 106 0
1 -3300 -182 0
1 -3300 151 0
1 -3315 -197 0
1 -3315 -136 0
1 3315 -61 0
1 -3330 -197 0
1 -3330 -106 0
1 3330 122 0
1 3330 91 0
1 3345 -167 0
1 3345 91 0
1 121 3300 0
1 121 3255 0
1 -136 135 0
1 -136 3240 0
1 151 -166 0
1 151 3225 0
1 151 -3195 0
1 -151 3165 0
1 166 -3195 0
1 -166 3165 0
1 3240 -166 0
1 3240 -106 0
1 -3240 -241 0
1 -3255 -136 0
1 3255 121 0
1 3270 227 0
1 -3270 -106 0
1 -3270 -3285 0
1 -3285 136 0
1 181 3105 0
1 -181 -3240 0
1 -181 3180 0
1 181 -3120 0
1 -181 182 0
1 -181 -3255 0
1 211 -3180 0
1 -211 -3255 0
1 211 -3195 0
1 -226 3240 0
1 226 3210 0
1 -226 3255 0
1 -3180 -151 0
1 -3180 -316 0
1 -3195 -3180 0
1 3195 270 0
1 3195 -181 0
1 -3195 255 0
1 -3210 256 0
1 -3210 211 0
1 3210 3225 0
1 -3210 -316 0
1 3225 226 0
1 -3225 -166 0
1 3225 3210 0
1 -3225 181 0
1 -240 -3075 0
1 240 -241 0
1 -240 3090 0
1 240 -3060 0
1 240 -3030 0
1 255 3075 0
1 -255 -3090 0
1 270 3136 0
1 -285 -3136 0
1 285 -3045 0
1 285 3121 0
1 -285 3091 0
1 -285 3195 0
1 3121 -330 0
1 3121 240 0
1 -3121 3122 0
1 3121 -315 0
1 3136 -3137 0
1 -3136 -361 0
1 -3136 330 0
1 -3136 -211 0
1 3151 3152 0
1 3166 -270 0
1 -3166 255 0
1 300 -3000 0
1 -315 3136 0
1 315 3076 0
1 330 3106 0
1 -330 3076 0
1 330 -3046 0
1 330 -3031 0
1 330 -3001 0
1 345 3106 0
1 345 -3001 0
1 -3061 -3076 0
1 3061 270 0
1 -3076 390 0
1 -3076 -270 0
1 -3076 -375 0
1 3091 -270 0
1 -3091 -285 0
1 3106 -406 0
1 3106 345 0
1 -3106 285 0
1 -375 3046 0
1 375 360 0
1 375 -3016 0
1 -390 3046 0
1 390 -3061 0
1 -405 -3076 0
1 -405 -3016 0
1 405 -3061 0
1 -405 -3031 0
1 -3001 480 0
1 3001 -360 0
1 -3001 330 0
1 -3001 -495 0
1 3001 -3002 0
1 -3016 495 0
1 -3016 -345 0
1 -3031 -420 0
1 -3031 -3046 0
1 -3031 375 0
1 3031 345 0
1 3046 450 0
1 3046 -435 0
1 3046 -345 0
1 77 -3495 0
1 92 3510 0
1 -92 -3420 0
1 -107 -3450 0
1 -3480 167 0
1 -3495 -167 0
1 -3495 -3496 0
1 3495 137 0
1 -3495 -77 0
1 3495 -92 0
1 3495 -62 0
1 -3525 3526 0
1 -3525 -3510 0
1 122 -3330 0
1 137 3465 0
1 137 -3345 0
1 152 -3375 0
1 167 3360 0
1 -167 3465 0
1 3420 -3435 0
1 3435 167 0
1 -3435 -152 0
1 3435 92 0
1 -3465 -3466 0
1 -182 3330 0
1 182 -197 0
1 -182 -3345 0
1 182 -3390 0
1 197 -3435 0
1 -197 3375 0
1 -197 3285 0
1 -212 -3360 0
1 212 3435 0
1 -212 211 0
1 212 3285 0
1 -227 3301 0
1 -227 3346 0
1 -3360 227 0
1 3360 241 0
1 -3360 -152 0
1 -3360 317 0
1 -3375 -256 0
1 -3375 -302 0
1 -3375 -3376 0
1 3390 -257 0
1 -3390 -227 0
1 -3390 -3405 0
1 3390 -242 0
1 3405 -257 0
1 -3405 227 0
1 -3405 3406 0
1 241 3360 0
1 241 -3331 0
1 241 -242 0
1 -256 3316 0
1 271 3301 0
1 271 3256 0
1 -271 286 0
1 286 -3210 0
1 286 -3256 0
1 3301 227 0
1 3301 3300 0
1 -3316 -331 0
1 3316 -212 0
1 3316 -316 0
1 3331 227 0
1 -3331 362 0
1 3331 -302 0
1 3346 -377 0
1 3346 -347 0
1 3346 317 0
1 301 3301 0
1 301 -302 0
1 -301 -3316 0
1 -301 3225 0
1 301 316 0
1 301 -3166 0
1 -316 301 0
1 316 3151 0
1 316 -3286 0
1 316 -317 0
1 -331 -3241 0
1 331 -330 0
1 -331 332 0
1 -331 -3286 0
1 331 3256 0
1 -346 -3271 0
1 -346 -3286 0
1 3241 391 0
1 -3241 3240 0
1 -3241 331 0
1 3241 436 0
1 3256 -421 0
1 -3256 406 0
1 3256 -3255 0
1 3256 -316 0
1 -3271 362 0
1 3271 436 0
1 3271 -286 0
1 3286 -407 0
1 -3286 377 0
1 -361 3106 0
1 361 -3241 0
1 376 -3136 0
1 376 375 0
1 -391 -392 0
1 -391 3122 0
1 391 3226 0
1 391 3167 0
1 -406 -3137 0
1 406 407 0
1 -406 -3226 0
1 -406 3196 0
1 -3181 -481 0
1 3181 -450 0
1 -3181 -3182 0
1 3181 465 0
1 3181 435 0
1 -3181 -376 0
1 -3196 -3197 0
1 -3211 481 0
1 3211 -451 0
1 3211 -421 0
1 -3211 -391 0
1 3211 -331 0
1 3211 436 0
1 3211 376 0
1 -3226 481 0
1 3226 451 0
1 3226 361 0
1 3226 -406 0
1 420 3046 0
1 -420 -435 0
1 435 -3137 0
1 -465 3137 0
1 465 -3062 0
1 -465 -3196 0
1 3122 465 0
1 3137 -495 0
1 -3137 465 0
1 -3137 -3122 0
1 3152 526 0
1 3167 450 0
1 3167 -496 0
1 3167 -511 0
1 -480 481 0
1 480 -3077 0
1 480 -3046 0
1 -495 -3046 0
1 495 3122 0
1 -495 3062 0
1 -495 3031 0
1 -510 511 0
1 -3062 495 0
1 -3062 -465 0
1 -3062 510 0
1 -3077 480 0
1 3077 555 0
1 3077 -525 0
1 -3077 -540 0
1 3077 -510 0
1 3107 3106 0
1 3107 3092 0
1 -3107 541 0
1 3107 510 0
1 -540 3077 0
1 -540 -3017 0
1 -555 556 0
1 555 -3062 0
1 -555 -540 0
1 570 3032 0
1 570 -3002 0
1 585 3002 0
1 585 586 0
1 3002 3001 0
1 3017 -540 0
1 -3032 510 0
1 -3047 -585 0
1 -242 -3526 0
1 -242 3465 0
1 242 -3405 0
1 242 -3420 0
1 -257 256 0
1 257 -3405 0
1 -257 3511 0
1 -257 -3420 0
1 272 3466 0
1 -272 -3511 0
1 -272 3481 0
1 272 3421 0
1 287 -3436 0
1 287 3511 0
1 -287 -286 0
1 -3481 -3482 0
1 3481 -347 0
1 -3481 317 0
1 3496 3497 0
1 -3496 -332 0
1 3496 -302 0
1 -3496 242 0
1 3496 347 0
1 -3511 -272 0
1 3511 287 0
1 3526 -287 0
1 302 -3331 0
1 302 3421 0
1 -317 -3436 0
1 -317 -3405 0
1 317 -3375 0
1 317 -3346 0
1 -332 -3331 0
1 332 331 0
1 -332 3451 0
1 -347 332 0
1 347 3436 0
1 -347 3391 0
1 -3421 -272 0
1 3421 437 0
1 3421 407 0
1 -3421 -3422 0
1 3436 -392 0
1 3436 -332 0
1 -3436 3437 0
1 3436 -272 0
1 3451 3466 0
1 -3466 332 0
1 3466 -3467 0
1 3466 -302 0
1 3466 -317 0
1 3466 -287 0
1 -362 3406 0
1 362 -3346 0
1 -362 -3286 0
1 377 362 0
1 -377 -3406 0
1 377 3391 0
1 -392 -3332 0
1 392 -3317 0
1 407 -3347 0
1 -407 3421 0
1 -407 -3391 0
1 -3361 482 0
1 -3361 392 0
1 -3361 -362 0
1 -3361 3376 0
1 3361 497 0
1 3376 -392 0
1 -3376 407 0
1 3376 -347 0
1 -3391 -467 0
1 -3391 377 0
1 -3406 -3405 0
1 -3406 -407 0
1 421 422 0
1 421 3302 0
1 421 3241 0
1 421 -436 0
1 421 -3317 0
1 421 -3256 0
1 421 3226 0
1 436 3271 0
1 436 -3376 0
1 -436 437 0
1 -436 -3256 0
1 -451 -3361 0
1 451 3302 0
1 -451 3272 0
1 466 -3361 0
1 -466 -3272 0
1 -466 3211 0
1 -466 3257 0
1 -3302 -3301 0
1 3302 526 0
1 3302 466 0
1 3317 -451 0
1 3317 421 0
1 -3317 -496 0
1 -3317 436 0
1 3317 -3316 0
1 3347 3332 0
1 -3347 -407 0
1 481 -3211 0
1 481 496 0
1 481 -3317 0
1 481 -3287 0
1 -496 3272 0
1 496 3287 0
1 -496 3257 0
1 496 -3226 0
1 -511 512 0
1 511 526 0
1 511 -3287 0
1 526 3272 0
1 526 -3317 0
1 3242 451 0
1 -3242 -3257 0
1 -3242 -526 0
1 -3257 586 0
1 -3272 3271 0
1 -3272 -587 0
1 3272 -496 0
1 3287 -526 0
1 -541 -3197 0
1 556 557 0
1 -556 -3152 0
1 556 -3227 0
1 586 -585 0
1 -586 -3242 0
1 586 -3227 0
1 -3182 -571 0
1 -3182 541 0
1 -3197 -556 0
1 3212 -586 0
1 3212 556 0
1 3227 -3212 0
1 3227 541 0
1 3227 -511 0
1 422 -3406 0
1 422 3391 0
1 -437 -3436 0
1 -452 3406 0
1 -452 -467 0
1 452 -3391 0
1 467 452 0
1 467 3467 0
1 -467 3437 0
1 -467 3512 0
1 -3497 482 0
1 3497 452 0
1 -3497 -3482 0
1 482 481 0
1 -482 3347 0
1 482 3452 0
1 497 -482 0
1 497 3347 0
1 -497 -3482 0
1 -497 -3422 0
1 512 3407 0
1 -512 -3452 0
1 -527 3332 0
1 -527 -3407 0
1 -527 3347 0
1 3422 -512 0
1 -3422 482 0
1 3422 -557 0
1 3422 -527 0
1 3422 467 0
1 -3437 3436 0
1 -3437 -572 0
1 3452 512 0
1 3452 -527 0
1 3467 482 0
1 3467 -452 0
1 557 -3362 0
1 557 -3332 0
1 557 3302 0
1 557 3422 0
1 -572 -3272 0
1 572 -3437 0
1 587 3407 0
1 3362 3361 0
1 -3377 587 0
1 -3392 -587 0
1 -3392 3407 0
1 3407 512 0
1 3407 587 0
